17	4	3
31	27	15	24	18	27	32	
0	0	0	0	0	3	10	7	5	3	4	3	2	3	4
10	1	0	0	0	4	10	9	9	7	8	2	8	15
5	0	0	0	10	3	3	7	4	2	5	3	11	13	17
2	4	0	5	8	7	5	1	9	6	8	3	5	7	16
4	2	0	0	8	6	5	10	1	10	5	2	6	17
150	0	0	4	2	1	3	5	7	7	7	1	17
150	0	4	7	2	1	10	6	9	9	3	2	10	17
50	0	1	0	2	6	1	6	2	5	8	3	9	12	17
50	7	0	0	6	6	1	3	6	10	8	1	17
175	9	0	8	0	4	5	3	4	6	3	2	14	17
50	1	0	4	0	8	7	5	2	4	2	1	12
50	2	2	6	5	9	4	1	5	2	10	1	17
6	1	5	0	0	7	8	1	2	10	5	1	17
7	0	6	0	0	9	6	6	2	1	6	1	17
1	0	10	0	0	9	5	10	2	8	6	1	17
3	7	4	1	0	4	6	2	8	8	5	1	17
0	0	0	0	0	9	6	8	10	10	10	0
